p cnf 350 1855
1 2 3 4 5 6 7 8 9 10 11 12 13  0
-14 1 0
14 -1 0
-15 14 2 0
15 -14 0
15 -2 0
-16 15 3 0
16 -15 0
16 -3 0
-17 16 4 0
17 -16 0
17 -4 0
-18 17 5 0
18 -17 0
18 -5 0
-19 18 6 0
19 -18 0
19 -6 0
-20 19 7 0
20 -19 0
20 -7 0
-21 20 8 0
21 -20 0
21 -8 0
-22 21 9 0
22 -21 0
22 -9 0
-23 22 10 0
23 -22 0
23 -10 0
-24 23 11 0
24 -23 0
24 -11 0
-25 24 12 0
25 -24 0
25 -12 0
-14 -2 0
-15 -3 0
-16 -4 0
-17 -5 0
-18 -6 0
-19 -7 0
-20 -8 0
-21 -9 0
-22 -10 0
-23 -11 0
-24 -12 0
-25 -13 0
26 27 28 29 30 31 32 33 34 35 36 37 38  0
-39 26 0
39 -26 0
-40 39 27 0
40 -39 0
40 -27 0
-41 40 28 0
41 -40 0
41 -28 0
-42 41 29 0
42 -41 0
42 -29 0
-43 42 30 0
43 -42 0
43 -30 0
-44 43 31 0
44 -43 0
44 -31 0
-45 44 32 0
45 -44 0
45 -32 0
-46 45 33 0
46 -45 0
46 -33 0
-47 46 34 0
47 -46 0
47 -34 0
-48 47 35 0
48 -47 0
48 -35 0
-49 48 36 0
49 -48 0
49 -36 0
-50 49 37 0
50 -49 0
50 -37 0
-39 -27 0
-40 -28 0
-41 -29 0
-42 -30 0
-43 -31 0
-44 -32 0
-45 -33 0
-46 -34 0
-47 -35 0
-48 -36 0
-49 -37 0
-50 -38 0
51 52 53 54 55 56 57 58 59 60 61 62 63  0
-64 51 0
64 -51 0
-65 64 52 0
65 -64 0
65 -52 0
-66 65 53 0
66 -65 0
66 -53 0
-67 66 54 0
67 -66 0
67 -54 0
-68 67 55 0
68 -67 0
68 -55 0
-69 68 56 0
69 -68 0
69 -56 0
-70 69 57 0
70 -69 0
70 -57 0
-71 70 58 0
71 -70 0
71 -58 0
-72 71 59 0
72 -71 0
72 -59 0
-73 72 60 0
73 -72 0
73 -60 0
-74 73 61 0
74 -73 0
74 -61 0
-75 74 62 0
75 -74 0
75 -62 0
-64 -52 0
-65 -53 0
-66 -54 0
-67 -55 0
-68 -56 0
-69 -57 0
-70 -58 0
-71 -59 0
-72 -60 0
-73 -61 0
-74 -62 0
-75 -63 0
76 77 78 79 80 81 82 83 84 85 86 87 88  0
-89 76 0
89 -76 0
-90 89 77 0
90 -89 0
90 -77 0
-91 90 78 0
91 -90 0
91 -78 0
-92 91 79 0
92 -91 0
92 -79 0
-93 92 80 0
93 -92 0
93 -80 0
-94 93 81 0
94 -93 0
94 -81 0
-95 94 82 0
95 -94 0
95 -82 0
-96 95 83 0
96 -95 0
96 -83 0
-97 96 84 0
97 -96 0
97 -84 0
-98 97 85 0
98 -97 0
98 -85 0
-99 98 86 0
99 -98 0
99 -86 0
-100 99 87 0
100 -99 0
100 -87 0
-89 -77 0
-90 -78 0
-91 -79 0
-92 -80 0
-93 -81 0
-94 -82 0
-95 -83 0
-96 -84 0
-97 -85 0
-98 -86 0
-99 -87 0
-100 -88 0
101 102 103 104 105 106 107 108 109 110 111 112 113  0
-114 101 0
114 -101 0
-115 114 102 0
115 -114 0
115 -102 0
-116 115 103 0
116 -115 0
116 -103 0
-117 116 104 0
117 -116 0
117 -104 0
-118 117 105 0
118 -117 0
118 -105 0
-119 118 106 0
119 -118 0
119 -106 0
-120 119 107 0
120 -119 0
120 -107 0
-121 120 108 0
121 -120 0
121 -108 0
-122 121 109 0
122 -121 0
122 -109 0
-123 122 110 0
123 -122 0
123 -110 0
-124 123 111 0
124 -123 0
124 -111 0
-125 124 112 0
125 -124 0
125 -112 0
-114 -102 0
-115 -103 0
-116 -104 0
-117 -105 0
-118 -106 0
-119 -107 0
-120 -108 0
-121 -109 0
-122 -110 0
-123 -111 0
-124 -112 0
-125 -113 0
126 127 128 129 130 131 132 133 134 135 136 137 138  0
-139 126 0
139 -126 0
-140 139 127 0
140 -139 0
140 -127 0
-141 140 128 0
141 -140 0
141 -128 0
-142 141 129 0
142 -141 0
142 -129 0
-143 142 130 0
143 -142 0
143 -130 0
-144 143 131 0
144 -143 0
144 -131 0
-145 144 132 0
145 -144 0
145 -132 0
-146 145 133 0
146 -145 0
146 -133 0
-147 146 134 0
147 -146 0
147 -134 0
-148 147 135 0
148 -147 0
148 -135 0
-149 148 136 0
149 -148 0
149 -136 0
-150 149 137 0
150 -149 0
150 -137 0
-139 -127 0
-140 -128 0
-141 -129 0
-142 -130 0
-143 -131 0
-144 -132 0
-145 -133 0
-146 -134 0
-147 -135 0
-148 -136 0
-149 -137 0
-150 -138 0
151 152 153 154 155 156 157 158 159 160 161 162 163  0
-164 151 0
164 -151 0
-165 164 152 0
165 -164 0
165 -152 0
-166 165 153 0
166 -165 0
166 -153 0
-167 166 154 0
167 -166 0
167 -154 0
-168 167 155 0
168 -167 0
168 -155 0
-169 168 156 0
169 -168 0
169 -156 0
-170 169 157 0
170 -169 0
170 -157 0
-171 170 158 0
171 -170 0
171 -158 0
-172 171 159 0
172 -171 0
172 -159 0
-173 172 160 0
173 -172 0
173 -160 0
-174 173 161 0
174 -173 0
174 -161 0
-175 174 162 0
175 -174 0
175 -162 0
-164 -152 0
-165 -153 0
-166 -154 0
-167 -155 0
-168 -156 0
-169 -157 0
-170 -158 0
-171 -159 0
-172 -160 0
-173 -161 0
-174 -162 0
-175 -163 0
176 177 178 179 180 181 182 183 184 185 186 187 188  0
-189 176 0
189 -176 0
-190 189 177 0
190 -189 0
190 -177 0
-191 190 178 0
191 -190 0
191 -178 0
-192 191 179 0
192 -191 0
192 -179 0
-193 192 180 0
193 -192 0
193 -180 0
-194 193 181 0
194 -193 0
194 -181 0
-195 194 182 0
195 -194 0
195 -182 0
-196 195 183 0
196 -195 0
196 -183 0
-197 196 184 0
197 -196 0
197 -184 0
-198 197 185 0
198 -197 0
198 -185 0
-199 198 186 0
199 -198 0
199 -186 0
-200 199 187 0
200 -199 0
200 -187 0
-189 -177 0
-190 -178 0
-191 -179 0
-192 -180 0
-193 -181 0
-194 -182 0
-195 -183 0
-196 -184 0
-197 -185 0
-198 -186 0
-199 -187 0
-200 -188 0
201 202 203 204 205 206 207 208 209 210 211 212 213  0
-214 201 0
214 -201 0
-215 214 202 0
215 -214 0
215 -202 0
-216 215 203 0
216 -215 0
216 -203 0
-217 216 204 0
217 -216 0
217 -204 0
-218 217 205 0
218 -217 0
218 -205 0
-219 218 206 0
219 -218 0
219 -206 0
-220 219 207 0
220 -219 0
220 -207 0
-221 220 208 0
221 -220 0
221 -208 0
-222 221 209 0
222 -221 0
222 -209 0
-223 222 210 0
223 -222 0
223 -210 0
-224 223 211 0
224 -223 0
224 -211 0
-225 224 212 0
225 -224 0
225 -212 0
-214 -202 0
-215 -203 0
-216 -204 0
-217 -205 0
-218 -206 0
-219 -207 0
-220 -208 0
-221 -209 0
-222 -210 0
-223 -211 0
-224 -212 0
-225 -213 0
226 227 228 229 230 231 232 233 234 235 236 237 238  0
-239 226 0
239 -226 0
-240 239 227 0
240 -239 0
240 -227 0
-241 240 228 0
241 -240 0
241 -228 0
-242 241 229 0
242 -241 0
242 -229 0
-243 242 230 0
243 -242 0
243 -230 0
-244 243 231 0
244 -243 0
244 -231 0
-245 244 232 0
245 -244 0
245 -232 0
-246 245 233 0
246 -245 0
246 -233 0
-247 246 234 0
247 -246 0
247 -234 0
-248 247 235 0
248 -247 0
248 -235 0
-249 248 236 0
249 -248 0
249 -236 0
-250 249 237 0
250 -249 0
250 -237 0
-239 -227 0
-240 -228 0
-241 -229 0
-242 -230 0
-243 -231 0
-244 -232 0
-245 -233 0
-246 -234 0
-247 -235 0
-248 -236 0
-249 -237 0
-250 -238 0
251 252 253 254 255 256 257 258 259 260 261 262 263  0
-264 251 0
264 -251 0
-265 264 252 0
265 -264 0
265 -252 0
-266 265 253 0
266 -265 0
266 -253 0
-267 266 254 0
267 -266 0
267 -254 0
-268 267 255 0
268 -267 0
268 -255 0
-269 268 256 0
269 -268 0
269 -256 0
-270 269 257 0
270 -269 0
270 -257 0
-271 270 258 0
271 -270 0
271 -258 0
-272 271 259 0
272 -271 0
272 -259 0
-273 272 260 0
273 -272 0
273 -260 0
-274 273 261 0
274 -273 0
274 -261 0
-275 274 262 0
275 -274 0
275 -262 0
-264 -252 0
-265 -253 0
-266 -254 0
-267 -255 0
-268 -256 0
-269 -257 0
-270 -258 0
-271 -259 0
-272 -260 0
-273 -261 0
-274 -262 0
-275 -263 0
276 277 278 279 280 281 282 283 284 285 286 287 288  0
-289 276 0
289 -276 0
-290 289 277 0
290 -289 0
290 -277 0
-291 290 278 0
291 -290 0
291 -278 0
-292 291 279 0
292 -291 0
292 -279 0
-293 292 280 0
293 -292 0
293 -280 0
-294 293 281 0
294 -293 0
294 -281 0
-295 294 282 0
295 -294 0
295 -282 0
-296 295 283 0
296 -295 0
296 -283 0
-297 296 284 0
297 -296 0
297 -284 0
-298 297 285 0
298 -297 0
298 -285 0
-299 298 286 0
299 -298 0
299 -286 0
-300 299 287 0
300 -299 0
300 -287 0
-289 -277 0
-290 -278 0
-291 -279 0
-292 -280 0
-293 -281 0
-294 -282 0
-295 -283 0
-296 -284 0
-297 -285 0
-298 -286 0
-299 -287 0
-300 -288 0
301 302 303 304 305 306 307 308 309 310 311 312 313  0
-314 301 0
314 -301 0
-315 314 302 0
315 -314 0
315 -302 0
-316 315 303 0
316 -315 0
316 -303 0
-317 316 304 0
317 -316 0
317 -304 0
-318 317 305 0
318 -317 0
318 -305 0
-319 318 306 0
319 -318 0
319 -306 0
-320 319 307 0
320 -319 0
320 -307 0
-321 320 308 0
321 -320 0
321 -308 0
-322 321 309 0
322 -321 0
322 -309 0
-323 322 310 0
323 -322 0
323 -310 0
-324 323 311 0
324 -323 0
324 -311 0
-325 324 312 0
325 -324 0
325 -312 0
-314 -302 0
-315 -303 0
-316 -304 0
-317 -305 0
-318 -306 0
-319 -307 0
-320 -308 0
-321 -309 0
-322 -310 0
-323 -311 0
-324 -312 0
-325 -313 0
326 327 328 329 330 331 332 333 334 335 336 337 338  0
-339 326 0
339 -326 0
-340 339 327 0
340 -339 0
340 -327 0
-341 340 328 0
341 -340 0
341 -328 0
-342 341 329 0
342 -341 0
342 -329 0
-343 342 330 0
343 -342 0
343 -330 0
-344 343 331 0
344 -343 0
344 -331 0
-345 344 332 0
345 -344 0
345 -332 0
-346 345 333 0
346 -345 0
346 -333 0
-347 346 334 0
347 -346 0
347 -334 0
-348 347 335 0
348 -347 0
348 -335 0
-349 348 336 0
349 -348 0
349 -336 0
-350 349 337 0
350 -349 0
350 -337 0
-339 -327 0
-340 -328 0
-341 -329 0
-342 -330 0
-343 -331 0
-344 -332 0
-345 -333 0
-346 -334 0
-347 -335 0
-348 -336 0
-349 -337 0
-350 -338 0
-26 -1 0
-51 -1 0
-51 -26 0
-76 -1 0
-76 -26 0
-76 -51 0
-101 -1 0
-101 -26 0
-101 -51 0
-101 -76 0
-126 -1 0
-126 -26 0
-126 -51 0
-126 -76 0
-126 -101 0
-151 -1 0
-151 -26 0
-151 -51 0
-151 -76 0
-151 -101 0
-151 -126 0
-176 -1 0
-176 -26 0
-176 -51 0
-176 -76 0
-176 -101 0
-176 -126 0
-176 -151 0
-201 -1 0
-201 -26 0
-201 -51 0
-201 -76 0
-201 -101 0
-201 -126 0
-201 -151 0
-201 -176 0
-226 -1 0
-226 -26 0
-226 -51 0
-226 -76 0
-226 -101 0
-226 -126 0
-226 -151 0
-226 -176 0
-226 -201 0
-251 -1 0
-251 -26 0
-251 -51 0
-251 -76 0
-251 -101 0
-251 -126 0
-251 -151 0
-251 -176 0
-251 -201 0
-251 -226 0
-276 -1 0
-276 -26 0
-276 -51 0
-276 -76 0
-276 -101 0
-276 -126 0
-276 -151 0
-276 -176 0
-276 -201 0
-276 -226 0
-276 -251 0
-301 -1 0
-301 -26 0
-301 -51 0
-301 -76 0
-301 -101 0
-301 -126 0
-301 -151 0
-301 -176 0
-301 -201 0
-301 -226 0
-301 -251 0
-301 -276 0
-326 -1 0
-326 -26 0
-326 -51 0
-326 -76 0
-326 -101 0
-326 -126 0
-326 -151 0
-326 -176 0
-326 -201 0
-326 -226 0
-326 -251 0
-326 -276 0
-326 -301 0
-27 -2 0
-52 -2 0
-52 -27 0
-77 -2 0
-77 -27 0
-77 -52 0
-102 -2 0
-102 -27 0
-102 -52 0
-102 -77 0
-127 -2 0
-127 -27 0
-127 -52 0
-127 -77 0
-127 -102 0
-152 -2 0
-152 -27 0
-152 -52 0
-152 -77 0
-152 -102 0
-152 -127 0
-177 -2 0
-177 -27 0
-177 -52 0
-177 -77 0
-177 -102 0
-177 -127 0
-177 -152 0
-202 -2 0
-202 -27 0
-202 -52 0
-202 -77 0
-202 -102 0
-202 -127 0
-202 -152 0
-202 -177 0
-227 -2 0
-227 -27 0
-227 -52 0
-227 -77 0
-227 -102 0
-227 -127 0
-227 -152 0
-227 -177 0
-227 -202 0
-252 -2 0
-252 -27 0
-252 -52 0
-252 -77 0
-252 -102 0
-252 -127 0
-252 -152 0
-252 -177 0
-252 -202 0
-252 -227 0
-277 -2 0
-277 -27 0
-277 -52 0
-277 -77 0
-277 -102 0
-277 -127 0
-277 -152 0
-277 -177 0
-277 -202 0
-277 -227 0
-277 -252 0
-302 -2 0
-302 -27 0
-302 -52 0
-302 -77 0
-302 -102 0
-302 -127 0
-302 -152 0
-302 -177 0
-302 -202 0
-302 -227 0
-302 -252 0
-302 -277 0
-327 -2 0
-327 -27 0
-327 -52 0
-327 -77 0
-327 -102 0
-327 -127 0
-327 -152 0
-327 -177 0
-327 -202 0
-327 -227 0
-327 -252 0
-327 -277 0
-327 -302 0
-28 -3 0
-53 -3 0
-53 -28 0
-78 -3 0
-78 -28 0
-78 -53 0
-103 -3 0
-103 -28 0
-103 -53 0
-103 -78 0
-128 -3 0
-128 -28 0
-128 -53 0
-128 -78 0
-128 -103 0
-153 -3 0
-153 -28 0
-153 -53 0
-153 -78 0
-153 -103 0
-153 -128 0
-178 -3 0
-178 -28 0
-178 -53 0
-178 -78 0
-178 -103 0
-178 -128 0
-178 -153 0
-203 -3 0
-203 -28 0
-203 -53 0
-203 -78 0
-203 -103 0
-203 -128 0
-203 -153 0
-203 -178 0
-228 -3 0
-228 -28 0
-228 -53 0
-228 -78 0
-228 -103 0
-228 -128 0
-228 -153 0
-228 -178 0
-228 -203 0
-253 -3 0
-253 -28 0
-253 -53 0
-253 -78 0
-253 -103 0
-253 -128 0
-253 -153 0
-253 -178 0
-253 -203 0
-253 -228 0
-278 -3 0
-278 -28 0
-278 -53 0
-278 -78 0
-278 -103 0
-278 -128 0
-278 -153 0
-278 -178 0
-278 -203 0
-278 -228 0
-278 -253 0
-303 -3 0
-303 -28 0
-303 -53 0
-303 -78 0
-303 -103 0
-303 -128 0
-303 -153 0
-303 -178 0
-303 -203 0
-303 -228 0
-303 -253 0
-303 -278 0
-328 -3 0
-328 -28 0
-328 -53 0
-328 -78 0
-328 -103 0
-328 -128 0
-328 -153 0
-328 -178 0
-328 -203 0
-328 -228 0
-328 -253 0
-328 -278 0
-328 -303 0
-29 -4 0
-54 -4 0
-54 -29 0
-79 -4 0
-79 -29 0
-79 -54 0
-104 -4 0
-104 -29 0
-104 -54 0
-104 -79 0
-129 -4 0
-129 -29 0
-129 -54 0
-129 -79 0
-129 -104 0
-154 -4 0
-154 -29 0
-154 -54 0
-154 -79 0
-154 -104 0
-154 -129 0
-179 -4 0
-179 -29 0
-179 -54 0
-179 -79 0
-179 -104 0
-179 -129 0
-179 -154 0
-204 -4 0
-204 -29 0
-204 -54 0
-204 -79 0
-204 -104 0
-204 -129 0
-204 -154 0
-204 -179 0
-229 -4 0
-229 -29 0
-229 -54 0
-229 -79 0
-229 -104 0
-229 -129 0
-229 -154 0
-229 -179 0
-229 -204 0
-254 -4 0
-254 -29 0
-254 -54 0
-254 -79 0
-254 -104 0
-254 -129 0
-254 -154 0
-254 -179 0
-254 -204 0
-254 -229 0
-279 -4 0
-279 -29 0
-279 -54 0
-279 -79 0
-279 -104 0
-279 -129 0
-279 -154 0
-279 -179 0
-279 -204 0
-279 -229 0
-279 -254 0
-304 -4 0
-304 -29 0
-304 -54 0
-304 -79 0
-304 -104 0
-304 -129 0
-304 -154 0
-304 -179 0
-304 -204 0
-304 -229 0
-304 -254 0
-304 -279 0
-329 -4 0
-329 -29 0
-329 -54 0
-329 -79 0
-329 -104 0
-329 -129 0
-329 -154 0
-329 -179 0
-329 -204 0
-329 -229 0
-329 -254 0
-329 -279 0
-329 -304 0
-30 -5 0
-55 -5 0
-55 -30 0
-80 -5 0
-80 -30 0
-80 -55 0
-105 -5 0
-105 -30 0
-105 -55 0
-105 -80 0
-130 -5 0
-130 -30 0
-130 -55 0
-130 -80 0
-130 -105 0
-155 -5 0
-155 -30 0
-155 -55 0
-155 -80 0
-155 -105 0
-155 -130 0
-180 -5 0
-180 -30 0
-180 -55 0
-180 -80 0
-180 -105 0
-180 -130 0
-180 -155 0
-205 -5 0
-205 -30 0
-205 -55 0
-205 -80 0
-205 -105 0
-205 -130 0
-205 -155 0
-205 -180 0
-230 -5 0
-230 -30 0
-230 -55 0
-230 -80 0
-230 -105 0
-230 -130 0
-230 -155 0
-230 -180 0
-230 -205 0
-255 -5 0
-255 -30 0
-255 -55 0
-255 -80 0
-255 -105 0
-255 -130 0
-255 -155 0
-255 -180 0
-255 -205 0
-255 -230 0
-280 -5 0
-280 -30 0
-280 -55 0
-280 -80 0
-280 -105 0
-280 -130 0
-280 -155 0
-280 -180 0
-280 -205 0
-280 -230 0
-280 -255 0
-305 -5 0
-305 -30 0
-305 -55 0
-305 -80 0
-305 -105 0
-305 -130 0
-305 -155 0
-305 -180 0
-305 -205 0
-305 -230 0
-305 -255 0
-305 -280 0
-330 -5 0
-330 -30 0
-330 -55 0
-330 -80 0
-330 -105 0
-330 -130 0
-330 -155 0
-330 -180 0
-330 -205 0
-330 -230 0
-330 -255 0
-330 -280 0
-330 -305 0
-31 -6 0
-56 -6 0
-56 -31 0
-81 -6 0
-81 -31 0
-81 -56 0
-106 -6 0
-106 -31 0
-106 -56 0
-106 -81 0
-131 -6 0
-131 -31 0
-131 -56 0
-131 -81 0
-131 -106 0
-156 -6 0
-156 -31 0
-156 -56 0
-156 -81 0
-156 -106 0
-156 -131 0
-181 -6 0
-181 -31 0
-181 -56 0
-181 -81 0
-181 -106 0
-181 -131 0
-181 -156 0
-206 -6 0
-206 -31 0
-206 -56 0
-206 -81 0
-206 -106 0
-206 -131 0
-206 -156 0
-206 -181 0
-231 -6 0
-231 -31 0
-231 -56 0
-231 -81 0
-231 -106 0
-231 -131 0
-231 -156 0
-231 -181 0
-231 -206 0
-256 -6 0
-256 -31 0
-256 -56 0
-256 -81 0
-256 -106 0
-256 -131 0
-256 -156 0
-256 -181 0
-256 -206 0
-256 -231 0
-281 -6 0
-281 -31 0
-281 -56 0
-281 -81 0
-281 -106 0
-281 -131 0
-281 -156 0
-281 -181 0
-281 -206 0
-281 -231 0
-281 -256 0
-306 -6 0
-306 -31 0
-306 -56 0
-306 -81 0
-306 -106 0
-306 -131 0
-306 -156 0
-306 -181 0
-306 -206 0
-306 -231 0
-306 -256 0
-306 -281 0
-331 -6 0
-331 -31 0
-331 -56 0
-331 -81 0
-331 -106 0
-331 -131 0
-331 -156 0
-331 -181 0
-331 -206 0
-331 -231 0
-331 -256 0
-331 -281 0
-331 -306 0
-32 -7 0
-57 -7 0
-57 -32 0
-82 -7 0
-82 -32 0
-82 -57 0
-107 -7 0
-107 -32 0
-107 -57 0
-107 -82 0
-132 -7 0
-132 -32 0
-132 -57 0
-132 -82 0
-132 -107 0
-157 -7 0
-157 -32 0
-157 -57 0
-157 -82 0
-157 -107 0
-157 -132 0
-182 -7 0
-182 -32 0
-182 -57 0
-182 -82 0
-182 -107 0
-182 -132 0
-182 -157 0
-207 -7 0
-207 -32 0
-207 -57 0
-207 -82 0
-207 -107 0
-207 -132 0
-207 -157 0
-207 -182 0
-232 -7 0
-232 -32 0
-232 -57 0
-232 -82 0
-232 -107 0
-232 -132 0
-232 -157 0
-232 -182 0
-232 -207 0
-257 -7 0
-257 -32 0
-257 -57 0
-257 -82 0
-257 -107 0
-257 -132 0
-257 -157 0
-257 -182 0
-257 -207 0
-257 -232 0
-282 -7 0
-282 -32 0
-282 -57 0
-282 -82 0
-282 -107 0
-282 -132 0
-282 -157 0
-282 -182 0
-282 -207 0
-282 -232 0
-282 -257 0
-307 -7 0
-307 -32 0
-307 -57 0
-307 -82 0
-307 -107 0
-307 -132 0
-307 -157 0
-307 -182 0
-307 -207 0
-307 -232 0
-307 -257 0
-307 -282 0
-332 -7 0
-332 -32 0
-332 -57 0
-332 -82 0
-332 -107 0
-332 -132 0
-332 -157 0
-332 -182 0
-332 -207 0
-332 -232 0
-332 -257 0
-332 -282 0
-332 -307 0
-33 -8 0
-58 -8 0
-58 -33 0
-83 -8 0
-83 -33 0
-83 -58 0
-108 -8 0
-108 -33 0
-108 -58 0
-108 -83 0
-133 -8 0
-133 -33 0
-133 -58 0
-133 -83 0
-133 -108 0
-158 -8 0
-158 -33 0
-158 -58 0
-158 -83 0
-158 -108 0
-158 -133 0
-183 -8 0
-183 -33 0
-183 -58 0
-183 -83 0
-183 -108 0
-183 -133 0
-183 -158 0
-208 -8 0
-208 -33 0
-208 -58 0
-208 -83 0
-208 -108 0
-208 -133 0
-208 -158 0
-208 -183 0
-233 -8 0
-233 -33 0
-233 -58 0
-233 -83 0
-233 -108 0
-233 -133 0
-233 -158 0
-233 -183 0
-233 -208 0
-258 -8 0
-258 -33 0
-258 -58 0
-258 -83 0
-258 -108 0
-258 -133 0
-258 -158 0
-258 -183 0
-258 -208 0
-258 -233 0
-283 -8 0
-283 -33 0
-283 -58 0
-283 -83 0
-283 -108 0
-283 -133 0
-283 -158 0
-283 -183 0
-283 -208 0
-283 -233 0
-283 -258 0
-308 -8 0
-308 -33 0
-308 -58 0
-308 -83 0
-308 -108 0
-308 -133 0
-308 -158 0
-308 -183 0
-308 -208 0
-308 -233 0
-308 -258 0
-308 -283 0
-333 -8 0
-333 -33 0
-333 -58 0
-333 -83 0
-333 -108 0
-333 -133 0
-333 -158 0
-333 -183 0
-333 -208 0
-333 -233 0
-333 -258 0
-333 -283 0
-333 -308 0
-34 -9 0
-59 -9 0
-59 -34 0
-84 -9 0
-84 -34 0
-84 -59 0
-109 -9 0
-109 -34 0
-109 -59 0
-109 -84 0
-134 -9 0
-134 -34 0
-134 -59 0
-134 -84 0
-134 -109 0
-159 -9 0
-159 -34 0
-159 -59 0
-159 -84 0
-159 -109 0
-159 -134 0
-184 -9 0
-184 -34 0
-184 -59 0
-184 -84 0
-184 -109 0
-184 -134 0
-184 -159 0
-209 -9 0
-209 -34 0
-209 -59 0
-209 -84 0
-209 -109 0
-209 -134 0
-209 -159 0
-209 -184 0
-234 -9 0
-234 -34 0
-234 -59 0
-234 -84 0
-234 -109 0
-234 -134 0
-234 -159 0
-234 -184 0
-234 -209 0
-259 -9 0
-259 -34 0
-259 -59 0
-259 -84 0
-259 -109 0
-259 -134 0
-259 -159 0
-259 -184 0
-259 -209 0
-259 -234 0
-284 -9 0
-284 -34 0
-284 -59 0
-284 -84 0
-284 -109 0
-284 -134 0
-284 -159 0
-284 -184 0
-284 -209 0
-284 -234 0
-284 -259 0
-309 -9 0
-309 -34 0
-309 -59 0
-309 -84 0
-309 -109 0
-309 -134 0
-309 -159 0
-309 -184 0
-309 -209 0
-309 -234 0
-309 -259 0
-309 -284 0
-334 -9 0
-334 -34 0
-334 -59 0
-334 -84 0
-334 -109 0
-334 -134 0
-334 -159 0
-334 -184 0
-334 -209 0
-334 -234 0
-334 -259 0
-334 -284 0
-334 -309 0
-35 -10 0
-60 -10 0
-60 -35 0
-85 -10 0
-85 -35 0
-85 -60 0
-110 -10 0
-110 -35 0
-110 -60 0
-110 -85 0
-135 -10 0
-135 -35 0
-135 -60 0
-135 -85 0
-135 -110 0
-160 -10 0
-160 -35 0
-160 -60 0
-160 -85 0
-160 -110 0
-160 -135 0
-185 -10 0
-185 -35 0
-185 -60 0
-185 -85 0
-185 -110 0
-185 -135 0
-185 -160 0
-210 -10 0
-210 -35 0
-210 -60 0
-210 -85 0
-210 -110 0
-210 -135 0
-210 -160 0
-210 -185 0
-235 -10 0
-235 -35 0
-235 -60 0
-235 -85 0
-235 -110 0
-235 -135 0
-235 -160 0
-235 -185 0
-235 -210 0
-260 -10 0
-260 -35 0
-260 -60 0
-260 -85 0
-260 -110 0
-260 -135 0
-260 -160 0
-260 -185 0
-260 -210 0
-260 -235 0
-285 -10 0
-285 -35 0
-285 -60 0
-285 -85 0
-285 -110 0
-285 -135 0
-285 -160 0
-285 -185 0
-285 -210 0
-285 -235 0
-285 -260 0
-310 -10 0
-310 -35 0
-310 -60 0
-310 -85 0
-310 -110 0
-310 -135 0
-310 -160 0
-310 -185 0
-310 -210 0
-310 -235 0
-310 -260 0
-310 -285 0
-335 -10 0
-335 -35 0
-335 -60 0
-335 -85 0
-335 -110 0
-335 -135 0
-335 -160 0
-335 -185 0
-335 -210 0
-335 -235 0
-335 -260 0
-335 -285 0
-335 -310 0
-36 -11 0
-61 -11 0
-61 -36 0
-86 -11 0
-86 -36 0
-86 -61 0
-111 -11 0
-111 -36 0
-111 -61 0
-111 -86 0
-136 -11 0
-136 -36 0
-136 -61 0
-136 -86 0
-136 -111 0
-161 -11 0
-161 -36 0
-161 -61 0
-161 -86 0
-161 -111 0
-161 -136 0
-186 -11 0
-186 -36 0
-186 -61 0
-186 -86 0
-186 -111 0
-186 -136 0
-186 -161 0
-211 -11 0
-211 -36 0
-211 -61 0
-211 -86 0
-211 -111 0
-211 -136 0
-211 -161 0
-211 -186 0
-236 -11 0
-236 -36 0
-236 -61 0
-236 -86 0
-236 -111 0
-236 -136 0
-236 -161 0
-236 -186 0
-236 -211 0
-261 -11 0
-261 -36 0
-261 -61 0
-261 -86 0
-261 -111 0
-261 -136 0
-261 -161 0
-261 -186 0
-261 -211 0
-261 -236 0
-286 -11 0
-286 -36 0
-286 -61 0
-286 -86 0
-286 -111 0
-286 -136 0
-286 -161 0
-286 -186 0
-286 -211 0
-286 -236 0
-286 -261 0
-311 -11 0
-311 -36 0
-311 -61 0
-311 -86 0
-311 -111 0
-311 -136 0
-311 -161 0
-311 -186 0
-311 -211 0
-311 -236 0
-311 -261 0
-311 -286 0
-336 -11 0
-336 -36 0
-336 -61 0
-336 -86 0
-336 -111 0
-336 -136 0
-336 -161 0
-336 -186 0
-336 -211 0
-336 -236 0
-336 -261 0
-336 -286 0
-336 -311 0
-37 -12 0
-62 -12 0
-62 -37 0
-87 -12 0
-87 -37 0
-87 -62 0
-112 -12 0
-112 -37 0
-112 -62 0
-112 -87 0
-137 -12 0
-137 -37 0
-137 -62 0
-137 -87 0
-137 -112 0
-162 -12 0
-162 -37 0
-162 -62 0
-162 -87 0
-162 -112 0
-162 -137 0
-187 -12 0
-187 -37 0
-187 -62 0
-187 -87 0
-187 -112 0
-187 -137 0
-187 -162 0
-212 -12 0
-212 -37 0
-212 -62 0
-212 -87 0
-212 -112 0
-212 -137 0
-212 -162 0
-212 -187 0
-237 -12 0
-237 -37 0
-237 -62 0
-237 -87 0
-237 -112 0
-237 -137 0
-237 -162 0
-237 -187 0
-237 -212 0
-262 -12 0
-262 -37 0
-262 -62 0
-262 -87 0
-262 -112 0
-262 -137 0
-262 -162 0
-262 -187 0
-262 -212 0
-262 -237 0
-287 -12 0
-287 -37 0
-287 -62 0
-287 -87 0
-287 -112 0
-287 -137 0
-287 -162 0
-287 -187 0
-287 -212 0
-287 -237 0
-287 -262 0
-312 -12 0
-312 -37 0
-312 -62 0
-312 -87 0
-312 -112 0
-312 -137 0
-312 -162 0
-312 -187 0
-312 -212 0
-312 -237 0
-312 -262 0
-312 -287 0
-337 -12 0
-337 -37 0
-337 -62 0
-337 -87 0
-337 -112 0
-337 -137 0
-337 -162 0
-337 -187 0
-337 -212 0
-337 -237 0
-337 -262 0
-337 -287 0
-337 -312 0
-38 -13 0
-63 -13 0
-63 -38 0
-88 -13 0
-88 -38 0
-88 -63 0
-113 -13 0
-113 -38 0
-113 -63 0
-113 -88 0
-138 -13 0
-138 -38 0
-138 -63 0
-138 -88 0
-138 -113 0
-163 -13 0
-163 -38 0
-163 -63 0
-163 -88 0
-163 -113 0
-163 -138 0
-188 -13 0
-188 -38 0
-188 -63 0
-188 -88 0
-188 -113 0
-188 -138 0
-188 -163 0
-213 -13 0
-213 -38 0
-213 -63 0
-213 -88 0
-213 -113 0
-213 -138 0
-213 -163 0
-213 -188 0
-238 -13 0
-238 -38 0
-238 -63 0
-238 -88 0
-238 -113 0
-238 -138 0
-238 -163 0
-238 -188 0
-238 -213 0
-263 -13 0
-263 -38 0
-263 -63 0
-263 -88 0
-263 -113 0
-263 -138 0
-263 -163 0
-263 -188 0
-263 -213 0
-263 -238 0
-288 -13 0
-288 -38 0
-288 -63 0
-288 -88 0
-288 -113 0
-288 -138 0
-288 -163 0
-288 -188 0
-288 -213 0
-288 -238 0
-288 -263 0
-313 -13 0
-313 -38 0
-313 -63 0
-313 -88 0
-313 -113 0
-313 -138 0
-313 -163 0
-313 -188 0
-313 -213 0
-313 -238 0
-313 -263 0
-313 -288 0
-338 -13 0
-338 -38 0
-338 -63 0
-338 -88 0
-338 -113 0
-338 -138 0
-338 -163 0
-338 -188 0
-338 -213 0
-338 -238 0
-338 -263 0
-338 -288 0
-338 -313 0
